LongOutput                    T

### DESCRIPTION OF THE SYSTEM
SystemName                    WSe2 bilayer encapsulated in hBN
SystemLabel                   encapsulated_WSe2

NumberOfSpecies               4
NumberOfAtoms                 182

%block    ChemicalSpecieslabel
    1   74   W
    2   34   Se
    3   5    B
    4   7    N
%endblock ChemicalSpecieslabel

### BASIS SET AND KB PROJECTORS
PAO.BasisType                 split
PAO.BasisSize                 DZP
PAO.EnergyShift               0.005 Ry
PAO.SplitNorm                 0.15

### STRUCTRUAL INFORMATION
LatticeConstant               1.000 Bohr

%block    LatticeVectors
  16.322621556  -9.432391005    0.000000000 
  16.322621556   9.432391005    0.000000000 
   0.000000000   0.000000000   44.670553382 
%endblock LatticeVectors

AtomicCoordinatesFormat       Fractional
%block    AtomicCoordinatesAndAtomicSpecies
    0.16666667    0.16666667    0.05913647   4       1  N
    0.16666667    0.41666667    0.05913647   4       2  N
    0.16666667    0.66666667    0.05913647   4       3  N
    0.16666667    0.91666667    0.05913647   4       4  N
    0.41666667    0.16666667    0.05913647   4       5  N
    0.41666667    0.41666667    0.05913647   4       6  N
    0.41666667    0.66666667    0.05913647   4       7  N
    0.41666667    0.91666667    0.05913647   4       8  N
    0.66666667    0.16666667    0.05913647   4       9  N
    0.66666667    0.41666667    0.05913647   4      10  N
    0.66666667    0.66666667    0.05913647   4      11  N
    0.66666667    0.91666667    0.05913647   4      12  N
    0.91666667    0.16666667    0.05913647   4      13  N
    0.91666667    0.41666667    0.05913647   4      14  N
    0.91666667    0.66666667    0.05913647   4      15  N
    0.91666667    0.91666667    0.05913647   4      16  N
    0.08333333    0.08333333    0.05913659   3      17  B
    0.08333333    0.33333333    0.05913659   3      18  B
    0.08333333    0.58333333    0.05913659   3      19  B
    0.08333333    0.83333333    0.05913659   3      20  B
    0.33333333    0.08333333    0.05913659   3      21  B
    0.33333333    0.33333333    0.05913659   3      22  B
    0.33333333    0.58333333    0.05913659   3      23  B
    0.33333333    0.83333333    0.05913659   3      24  B
    0.58333333    0.08333333    0.05913659   3      25  B
    0.58333333    0.33333333    0.05913659   3      26  B
    0.58333333    0.58333333    0.05913659   3      27  B
    0.58333333    0.83333333    0.05913659   3      28  B
    0.83333333    0.08333333    0.05913659   3      29  B
    0.83333333    0.33333333    0.05913659   3      30  B
    0.83333333    0.58333333    0.05913659   3      31  B
    0.83333333    0.83333333    0.05913659   3      32  B
    0.16666667    0.16666667    0.17793539   3      33  B
    0.16666667    0.41666667    0.17793539   3      34  B
    0.16666667    0.66666667    0.17793539   3      35  B
    0.16666667    0.91666667    0.17793539   3      36  B
    0.41666667    0.16666667    0.17793539   3      37  B
    0.41666667    0.41666667    0.17793539   3      38  B
    0.41666667    0.66666667    0.17793539   3      39  B
    0.41666667    0.91666667    0.17793539   3      40  B
    0.66666667    0.16666667    0.17793539   3      41  B
    0.66666667    0.41666667    0.17793539   3      42  B
    0.66666667    0.66666667    0.17793539   3      43  B
    0.66666667    0.91666667    0.17793539   3      44  B
    0.91666667    0.16666667    0.17793539   3      45  B
    0.91666667    0.41666667    0.17793539   3      46  B
    0.91666667    0.66666667    0.17793539   3      47  B
    0.91666667    0.91666667    0.17793539   3      48  B
    0.08333333    0.08333333    0.17793555   4      49  N
    0.08333333    0.33333333    0.17793555   4      50  N
    0.08333333    0.58333333    0.17793555   4      51  N
    0.08333333    0.83333333    0.17793555   4      52  N
    0.33333333    0.08333333    0.17793555   4      53  N
    0.33333333    0.33333333    0.17793555   4      54  N
    0.33333333    0.58333333    0.17793555   4      55  N
    0.33333333    0.83333333    0.17793555   4      56  N
    0.58333333    0.08333333    0.17793555   4      57  N
    0.58333333    0.33333333    0.17793555   4      58  N
    0.58333333    0.58333333    0.17793555   4      59  N
    0.58333333    0.83333333    0.17793555   4      60  N
    0.83333333    0.08333333    0.17793555   4      61  N
    0.83333333    0.33333333    0.17793555   4      62  N
    0.83333333    0.58333333    0.17793555   4      63  N
    0.83333333    0.83333333    0.17793555   4      64  N
    0.22222222    0.22222222    0.30159598   2      65  Se
    0.22222222    0.55555556    0.30159598   2      66  Se
    0.22222222    0.88888889    0.30159598   2      67  Se
    0.55555556    0.22222222    0.30159598   2      68  Se
    0.55555556    0.55555556    0.30159598   2      69  Se
    0.55555556    0.88888889    0.30159598   2      70  Se
    0.88888889    0.22222222    0.30159598   2      71  Se
    0.88888889    0.55555556    0.30159598   2      72  Se
    0.88888889    0.88888889    0.30159598   2      73  Se
    0.11111111    0.11111111    0.37315084   1      74  W
    0.11111111    0.44444444    0.37315084   1      75  W
    0.11111111    0.77777778    0.37315084   1      76  W
    0.44444444    0.11111111    0.37315084   1      77  W
    0.44444444    0.44444444    0.37315084   1      78  W
    0.44444444    0.77777778    0.37315084   1      79  W
    0.77777778    0.11111111    0.37315084   1      80  W
    0.77777778    0.44444444    0.37315084   1      81  W
    0.77777778    0.77777778    0.37315084   1      82  W
    0.22222222    0.22222222    0.44495309   2      83  Se
    0.22222222    0.55555556    0.44495309   2      84  Se
    0.22222222    0.88888889    0.44495309   2      85  Se
    0.55555556    0.22222222    0.44495309   2      86  Se
    0.55555556    0.55555556    0.44495309   2      87  Se
    0.55555556    0.88888889    0.44495309   2      88  Se
    0.88888889    0.22222222    0.44495309   2      89  Se
    0.88888889    0.55555556    0.44495309   2      90  Se
    0.88888889    0.88888889    0.44495309   2      91  Se
    0.11111111    0.11111111    0.55497955   2      92  Se
    0.11111111    0.44444444    0.55497955   2      93  Se
    0.11111111    0.77777778    0.55497955   2      94  Se
    0.44444444    0.11111111    0.55497955   2      95  Se
    0.44444444    0.44444444    0.55497955   2      96  Se
    0.44444444    0.77777778    0.55497955   2      97  Se
    0.77777778    0.11111111    0.55497955   2      98  Se
    0.77777778    0.44444444    0.55497955   2      99  Se
    0.77777778    0.77777778    0.55497955   2     100  Se
    0.22222222    0.22222222    0.62678150   1     101  W
    0.22222222    0.55555556    0.62678150   1     102  W
    0.22222222    0.88888889    0.62678150   1     103  W
    0.55555556    0.22222222    0.62678150   1     104  W
    0.55555556    0.55555556    0.62678150   1     105  W
    0.55555556    0.88888889    0.62678150   1     106  W
    0.88888889    0.22222222    0.62678150   1     107  W
    0.88888889    0.55555556    0.62678150   1     108  W
    0.88888889    0.88888889    0.62678150   1     109  W
    0.11111111    0.11111111    0.69833887   2     110  Se
    0.11111111    0.44444444    0.69833887   2     111  Se
    0.11111111    0.77777778    0.69833887   2     112  Se
    0.44444444    0.11111111    0.69833887   2     113  Se
    0.44444444    0.44444444    0.69833887   2     114  Se
    0.44444444    0.77777778    0.69833887   2     115  Se
    0.77777778    0.11111111    0.69833887   2     116  Se
    0.77777778    0.44444444    0.69833887   2     117  Se
    0.77777778    0.77777778    0.69833887   2     118  Se
    0.16666667    0.16666667    0.82201855   4     119  N
    0.16666667    0.41666667    0.82201855   4     120  N
    0.16666667    0.66666667    0.82201855   4     121  N
    0.16666667    0.91666667    0.82201855   4     122  N
    0.41666667    0.16666667    0.82201855   4     123  N
    0.41666667    0.41666667    0.82201855   4     124  N
    0.41666667    0.66666667    0.82201855   4     125  N
    0.41666667    0.91666667    0.82201855   4     126  N
    0.66666667    0.16666667    0.82201855   4     127  N
    0.66666667    0.41666667    0.82201855   4     128  N
    0.66666667    0.66666667    0.82201855   4     129  N
    0.66666667    0.91666667    0.82201855   4     130  N
    0.91666667    0.16666667    0.82201855   4     131  N
    0.91666667    0.41666667    0.82201855   4     132  N
    0.91666667    0.66666667    0.82201855   4     133  N
    0.91666667    0.91666667    0.82201855   4     134  N
    0.08333333    0.08333333    0.82201867   3     135  B
    0.08333333    0.33333333    0.82201867   3     136  B
    0.08333333    0.58333333    0.82201867   3     137  B
    0.08333333    0.83333333    0.82201867   3     138  B
    0.33333333    0.08333333    0.82201867   3     139  B
    0.33333333    0.33333333    0.82201867   3     140  B
    0.33333333    0.58333333    0.82201867   3     141  B
    0.33333333    0.83333333    0.82201867   3     142  B
    0.58333333    0.08333333    0.82201867   3     143  B
    0.58333333    0.33333333    0.82201867   3     144  B
    0.58333333    0.58333333    0.82201867   3     145  B
    0.58333333    0.83333333    0.82201867   3     146  B
    0.83333333    0.08333333    0.82201867   3     147  B
    0.83333333    0.33333333    0.82201867   3     148  B
    0.83333333    0.58333333    0.82201867   3     149  B
    0.83333333    0.83333333    0.82201867   3     150  B
    0.16666667    0.16666667    0.94084705   3     151  B
    0.16666667    0.41666667    0.94084705   3     152  B
    0.16666667    0.66666667    0.94084705   3     153  B
    0.16666667    0.91666667    0.94084705   3     154  B
    0.41666667    0.16666667    0.94084705   3     155  B
    0.41666667    0.41666667    0.94084705   3     156  B
    0.41666667    0.66666667    0.94084705   3     157  B
    0.41666667    0.91666667    0.94084705   3     158  B
    0.66666667    0.16666667    0.94084705   3     159  B
    0.66666667    0.41666667    0.94084705   3     160  B
    0.66666667    0.66666667    0.94084705   3     161  B
    0.66666667    0.91666667    0.94084705   3     162  B
    0.91666667    0.16666667    0.94084705   3     163  B
    0.91666667    0.41666667    0.94084705   3     164  B
    0.91666667    0.66666667    0.94084705   3     165  B
    0.91666667    0.91666667    0.94084705   3     166  B
    0.08333333    0.08333333    0.94084721   4     167  N
    0.08333333    0.33333333    0.94084721   4     168  N
    0.08333333    0.58333333    0.94084721   4     169  N
    0.08333333    0.83333333    0.94084721   4     170  N
    0.33333333    0.08333333    0.94084721   4     171  N
    0.33333333    0.33333333    0.94084721   4     172  N
    0.33333333    0.58333333    0.94084721   4     173  N
    0.33333333    0.83333333    0.94084721   4     174  N
    0.58333333    0.08333333    0.94084721   4     175  N
    0.58333333    0.33333333    0.94084721   4     176  N
    0.58333333    0.58333333    0.94084721   4     177  N
    0.58333333    0.83333333    0.94084721   4     178  N
    0.83333333    0.08333333    0.94084721   4     179  N
    0.83333333    0.33333333    0.94084721   4     180  N
    0.83333333    0.58333333    0.94084721   4     181  N
    0.83333333    0.83333333    0.94084721   4     182  N
%endblock AtomicCoordinatesAndAtomicSpecies

WriteCoorXmol                 T

MD.UseSaveXV                  F

### K-POINT SAMPLING
%block    kgrid.MonkhorstPack
      1     0    0    0.5
      0     1    0    0.5
      0     0    1    0.5   
%endblock kgrid.MonkhorstPack

### EXCHANGE-CORRELATION FUNCTIONALS
XC.Functional                 GGA
XC.Authors                    PBE

### THE SELF-CONSISTENT-FIELD LOOP
MaxSCFIterations              100
DM.MixingWeight               0.15
DM.NumberPulay                10
DM.UseSaveDM                  T
DM.Tolerance                  1.0d-6
ParallelOverK                 F
HighestBand                   1000

### THE REAL-SPACE GRID AND THE EGG-BOX EFFECT
Mesh.Cutoff                   1000.0 Ry

### MATRIX ELEMENTS OF THE HAMILTONIAN AND OVERLAP
NeglNonOverlapInt             F

### CALCULATION OF THE ELECTRONIC STRUCTURE
SolutionMethod                diagon
ElectronicTemperature         0.001 Ry
WriteEigenvalues              F

### BAND-STRUCTURE ANALYSIS
BandLinesScale                ReciprocalLatticeVectors
%block    BandLines
    1     0.000000000   0.000000000   0.000000000 # M
%endblock BandLines

WriteKbands                   F
WriteBands                    F

### OUTPUT OF SELECTED WAVEFUNCTIONS
WriteWavefunctions            F

### STRUCTURAL RELAXATION
MD.TypeOfRun                  CG
MD.VariableCell               F
MD.MaxForceTol                0.01 eV/ang
MD.MaxStressTol               0.1 GPa
MD.NumCGsteps                 100
MD.MaxCGDispl                 0.01 Bohr
MD.UseSaveCG                  F
MD.TargetPressure             0 GPa

### OUTPUT OPTIONS FOR DYNAMICS
WriteCoorStep                 T
WriteForces                   T

### USE OF GENERAL CONSTRAINTS
%block    Geometry.Constraints
  stress 4 5
%endblock Geometry.Constraints

### HGKIM OPTIONS
van_der_Waals                 T
ReducedBZ                     T

ConnectBandLines              F

### HJCHOI OPTIONS
%block    RigidBody
   10
    1   32   TZ    RN
   33   64   TZ    RN
   65   73   TZ    RN
   74   82   TZ    RN
   83   91   TZ    RN
   92  100   TZ    RN
  101  109   TZ    RN
  110  118   TZ    RN
  119  150   TZ    RN
  151  182   TZ    RN
%endblock RigidBody
